# 3d body lj sphere simulation
atom_style bodt npartic