# 3d lennard jones
units lj
atom_style atomic
lattice fcc 0.5
region box block 0 30 0 30 0 30
create_box 1 box
create_atoms 1 box

mass 1 1.0
velocity all create 0.1 87287
pair_style lj/cut 2.5
pair_coeff 1 1 1.0 1.0 2.5
neighbor 0.3 bin
neigh_modify every 30 delay 0 check no

fix 1 all nvt temp 0.05 0.05 1.0
dump         image all image 1000 image.*.png type type &
             zoom 1.0
dump         movie all movie 100 movie.avi type type &
             zoom 1.0
thermo 100
run 100000
