# 3d body lj sphere simulation
units lj
lattice		fcc 0.2  
region		box block 0 10 0 10 0 10 
create_box 	1   box
create_atoms 	1   box
atom_style 	body nparticle 1 10
