#modelling the evaporation of lj particles

units 		nano 
atom_style 	body 
region 		liquid 		
