units		nano
dimension 	3
newton		on
boundary 	p p p
atom_style 	body  rounded/polyhedron 1 20

variable steps 	    equal 1000

read_data 	data.sphere group lj
replicate 	10 10 20

region		cubes_creation	block 0 20 0 20 15 25
delete_atoms 	region 		cubes_creation compress yes
region 		surface 	block 0 20 0 20 39 40


read_data 	data.cubes	group	cubes	add	append
replicate 	2 2 2

velocity 	all create 100 156164 dist gaussian mom yes rot yes


variable cut_inner  equal 0.7
variable k_n        equal 100
variable k_na       equal -20
variable c_n        equal 1.0
variable c_t        equal 1.0
variable mu         equal 1.0
variable A_ua       equal 1.0

variable epsilon    equal 0.5
variable sigma      equal 3


pair_style 	hybrid/overlay &
		body/rounded/polyhedron ${c_n} ${c_t} ${mu} ${A_ua} ${cut_inner} &
               lj/cut 5
		
pair_coeff 	2 2    body/rounded/polyhedron ${k_n} ${k_na}
pair_coeff	1 *    lj/cut ${epsilon} ${sigma}


comm_modify    vel yes

neighbor       0.5 bin
neigh_modify   every 1 delay 0 check yes

timestep       0.0005

fix 	       1 all nve/body
fix 	       2 lj  evaporate	 100   100	surface  842849


dump           image all image 1000 image.*.png type type &
               zoom 1.0 axes yes 0.1 0.01 body type 1 1 view 90 45 adiam 1.0
	     
thermo_style   custom step
thermo	       100
run 	       steps


