MODULEPATH = /software/modules-15.1/bio:/software/modules-15.1/chem:/software/modules-15.1/cluster:/software/modules-15.1/compiler:/software/modules-15.1/devel:/software/modules-15.1/lib:/software/modules-15.1/numlib:/software/modules-15.1/math:/software/modules-15.1/phys:/software/modules-15.1/sge:/software/modules-15.1/sys:/software/modules-15.1/vis
LAMMPS (3 Mar 2020)
  using 1 OpenMP thread(s) per MPI task
#Read the equilibrated lj fluid with nanocubes and let it evaporate for 10 mio


units           lj
atom_style      full
#atom_modify     map array first cubes
dimension       3
boundary        p p f
pair_style      lj/cut/opt 4.4


variable        sigma           equal 1.0
variable        epsilon         equal 1.0
read_restart	restart.dat.1000000
